benchmarks/crosswords/mzn/crossword3_29.ozn
output ([(((("\n"++problem_name)++"\n")++"L:")++show(L))++"\n"]++[if problem[i,j]==0 then "*" else show(letters[fix(L[problem[i,j]])]) endif++if j==cols then "\n" else "" endif | i in 1..rows, j in 1..cols, ])++["\n"];
int: rows = 19;
int: cols = 19;
array [1..rows,1..cols] of int: problem = [|1,2,3,0,0,4,5,6,7,0,8,9,10,11,0,12,13,14,15|16,17,18,19,0,20,21,22,23,0,24,25,26,27,0,28,29,30,31|32,33,34,35,36,37,38,39,40,41,42,43,44,45,46,47,48,49,50|51,52,53,54,55,56,57,0,58,59,60,61,0,0,62,63,64,65,0|0,0,0,66,67,68,0,69,70,71,72,0,73,74,75,76,0,0,0|77,78,79,80,81,0,82,83,84,85,0,86,87,88,89,90,91,92,93|94,95,96,97,0,98,99,100,101,0,102,103,104,105,0,0,106,107,108|109,110,111,0,112,113,114,115,0,116,117,118,119,120,0,121,122,123,124|0,125,126,127,128,129,130,0,131,132,133,134,0,0,135,136,137,138,139|0,0,0,140,141,142,143,144,145,146,147,148,149,150,151,152,0,0,0|153,154,155,156,157,0,0,158,159,160,161,0,162,163,164,165,166,167,0|168,169,170,171,0,172,173,174,175,176,0,177,178,179,180,0,181,182,183|184,185,186,0,0,187,188,189,190,0,191,192,193,194,0,195,196,197,198|199,200,201,202,203,204,205,206,0,207,208,209,210,0,211,212,213,214,215|0,0,0,216,217,218,219,0,220,221,222,223,0,224,225,226,0,0,0|0,227,228,229,230,0,0,231,232,233,234,0,235,236,237,238,239,240,241|242,243,244,245,246,247,248,249,250,251,252,253,254,255,256,257,258,259,260|261,262,263,264,0,265,266,267,268,0,269,270,271,272,0,273,274,275,276|277,278,279,280,0,281,282,283,284,0,285,286,287,288,0,0,289,290,291|];
int: num_letters = 26;
array [1..num_letters] of string: letters = ["a","b","c","d","e","f","g","h","i","j","k","l","m","n","o","p","q","r","s","t","u","v","w","x","y","z"];
int: N = 291;
array [0..N] of int: L;
string: problem_name = "19.10, 19 x 19";
