benchmarks/crosswords/mzn/crossword3_29.res
REGULAR
REGULAR
REGULAR
REGULAR
REGULAR
REGULAR
REGULAR
REGULAR
REGULAR
REGULAR
REGULAR
REGULAR
REGULAR
REGULAR
REGULAR
REGULAR
REGULAR
REGULAR
REGULAR
REGULAR
REGULAR
REGULAR
REGULAR
REGULAR
REGULAR
REGULAR
REGULAR
REGULAR
REGULAR
REGULAR
REGULAR
REGULAR
REGULAR
REGULAR
REGULAR
REGULAR
REGULAR
REGULAR
REGULAR
REGULAR
REGULAR
REGULAR
REGULAR
REGULAR
REGULAR
REGULAR
REGULAR
REGULAR
REGULAR
REGULAR
REGULAR
REGULAR
REGULAR
REGULAR
REGULAR
REGULAR
REGULAR
REGULAR
REGULAR
REGULAR
REGULAR
REGULAR
REGULAR
REGULAR
REGULAR
REGULAR
REGULAR
REGULAR
REGULAR
REGULAR
REGULAR
REGULAR
REGULAR
REGULAR
REGULAR
REGULAR
REGULAR
REGULAR
REGULAR
REGULAR
REGULAR
REGULAR
REGULAR
REGULAR
REGULAR
REGULAR
REGULAR
REGULAR
REGULAR
REGULAR
REGULAR
REGULAR
REGULAR
REGULAR
REGULAR
REGULAR
REGULAR
REGULAR
REGULAR
REGULAR
REGULAR
REGULAR
REGULAR
REGULAR
REGULAR
REGULAR
REGULAR
REGULAR
REGULAR
REGULAR
REGULAR
REGULAR
REGULAR
REGULAR
REGULAR
REGULAR
REGULAR
REGULAR
REGULAR
REGULAR
REGULAR
REGULAR
REGULAR
REGULAR
REGULAR
REGULAR
REGULAR
REGULAR
L = array1d(0..291, [1, 1, 4, 1, 11, 14, 1, 4, 1, 4, 4, 5, 5, 19, 1, 2, 4, 5, 3, 9, 19, 1, 5, 12, 11, 14, 9, 11, 9, 20, 14, 1, 5, 3, 14, 5, 7, 9, 12, 12, 5, 20, 14, 9, 18, 5, 20, 14, 21, 15, 3, 12, 1, 9, 14, 1, 18, 3, 9, 12, 1, 2, 5, 14, 15, 4, 21, 12, 6, 5, 6, 1, 19, 25, 18, 5, 1, 5, 13, 1, 18, 6, 16, 9, 14, 19, 11, 14, 1, 2, 4, 14, 1, 19, 4, 5, 12, 2, 13, 1, 13, 9, 1, 5, 1, 7, 23, 13, 2, 15, 5, 12, 19, 5, 3, 1, 5, 12, 16, 13, 1, 6, 1, 12, 15, 4, 5, 8, 3, 20, 5, 1, 18, 21, 1, 1, 5, 4, 5, 13, 3, 1, 9, 18, 4, 14, 15, 8, 3, 15, 16, 25, 8, 19, 5, 12, 1, 19, 1, 5, 8, 19, 5, 13, 1, 3, 5, 2, 2, 15, 12, 2, 15, 12, 12, 5, 3, 5, 4, 1, 13, 14, 18, 21, 1, 12, 1, 20, 18, 1, 4, 4, 14, 9, 12, 4, 14, 5, 20, 14, 1, 13, 19, 5, 12, 1, 19, 5, 12, 1, 22, 4, 18, 1, 8, 19, 9, 12, 1, 3, 8, 3, 15, 11, 18, 9, 1, 16, 15, 18, 4, 5, 3, 1, 6, 4, 5, 1, 14, 21, 1, 19, 12, 1, 14, 15, 9, 20, 1, 14, 9, 13, 15, 14, 5, 4, 18, 5, 20, 14, 9, 1, 5, 18, 1, 21, 18, 3, 5, 23, 1, 18, 4, 12, 1, 14, 1, 3, 18, 1, 13, 14, 9, 1, 18, 20, 9, 2, 15, 2, 1, 4]);
----------

%%  runtime:       8.062 (8062.090 ms)
%%  solvetime:     0.153 (153.966 ms)
%%  solutions:     1
%%  variables:     24681
%%  propagators:   32329
%%  propagations:  253598
%%  nodes:         144
%%  failures:      10
%%  restarts:      0
%%  peak depth:    133

GECODE_TUPLESET_MEM
GECODE_TUPLESET_MEM
GECODE_TUPLESET_MEM
GECODE_TUPLESET_MEM
GECODE_TUPLESET_MEM
GECODE_TUPLESET_MEM
GECODE_TUPLESET_MEM
GECODE_TUPLESET_MEM
GECODE_TUPLESET_MEM
GECODE_TUPLESET_MEM
GECODE_TUPLESET_MEM
GECODE_TUPLESET_MEM
GECODE_TUPLESET_MEM
GECODE_TUPLESET_MEM
GECODE_TUPLESET_MEM
GECODE_TUPLESET_MEM
GECODE_TUPLESET_MEM
GECODE_TUPLESET_MEM
GECODE_TUPLESET_MEM
GECODE_TUPLESET_MEM
GECODE_TUPLESET_MEM
GECODE_TUPLESET_MEM
GECODE_TUPLESET_MEM
GECODE_TUPLESET_MEM
GECODE_TUPLESET_MEM
GECODE_TUPLESET_MEM
GECODE_TUPLESET_MEM
GECODE_TUPLESET_MEM
GECODE_TUPLESET_MEM
GECODE_TUPLESET_MEM
GECODE_TUPLESET_MEM
GECODE_TUPLESET_MEM
GECODE_TUPLESET_MEM
GECODE_TUPLESET_MEM
GECODE_TUPLESET_MEM
GECODE_TUPLESET_MEM
GECODE_TUPLESET_MEM
GECODE_TUPLESET_MEM
GECODE_TUPLESET_MEM
GECODE_TUPLESET_MEM
GECODE_TUPLESET_MEM
GECODE_TUPLESET_MEM
GECODE_TUPLESET_MEM
GECODE_TUPLESET_MEM
GECODE_TUPLESET_MEM
GECODE_TUPLESET_MEM
GECODE_TUPLESET_MEM
GECODE_TUPLESET_MEM
GECODE_TUPLESET_MEM
GECODE_TUPLESET_MEM
GECODE_TUPLESET_MEM
GECODE_TUPLESET_MEM
GECODE_TUPLESET_MEM
GECODE_TUPLESET_MEM
GECODE_TUPLESET_MEM
GECODE_TUPLESET_MEM
GECODE_TUPLESET_MEM
GECODE_TUPLESET_MEM
GECODE_TUPLESET_MEM
GECODE_TUPLESET_MEM
GECODE_TUPLESET_MEM
GECODE_TUPLESET_MEM
GECODE_TUPLESET_MEM
GECODE_TUPLESET_MEM
GECODE_TUPLESET_MEM
GECODE_TUPLESET_MEM
GECODE_TUPLESET_MEM
GECODE_TUPLESET_MEM
GECODE_TUPLESET_MEM
GECODE_TUPLESET_MEM
GECODE_TUPLESET_MEM
GECODE_TUPLESET_MEM
GECODE_TUPLESET_MEM
GECODE_TUPLESET_MEM
GECODE_TUPLESET_MEM
GECODE_TUPLESET_MEM
GECODE_TUPLESET_MEM
GECODE_TUPLESET_MEM
GECODE_TUPLESET_MEM
GECODE_TUPLESET_MEM
GECODE_TUPLESET_MEM
GECODE_TUPLESET_MEM
GECODE_TUPLESET_MEM
GECODE_TUPLESET_MEM
GECODE_TUPLESET_MEM
GECODE_TUPLESET_MEM
GECODE_TUPLESET_MEM
GECODE_TUPLESET_MEM
GECODE_TUPLESET_MEM
GECODE_TUPLESET_MEM
GECODE_TUPLESET_MEM
GECODE_TUPLESET_MEM
GECODE_TUPLESET_MEM
GECODE_TUPLESET_MEM
GECODE_TUPLESET_MEM
GECODE_TUPLESET_MEM
GECODE_TUPLESET_MEM
GECODE_TUPLESET_MEM
GECODE_TUPLESET_MEM
GECODE_TUPLESET_MEM
GECODE_TUPLESET_MEM
GECODE_TUPLESET_MEM
GECODE_TUPLESET_MEM
GECODE_TUPLESET_MEM
GECODE_TUPLESET_MEM
GECODE_TUPLESET_MEM
GECODE_TUPLESET_MEM
GECODE_TUPLESET_MEM
GECODE_TUPLESET_MEM
GECODE_TUPLESET_MEM
GECODE_TUPLESET_MEM
GECODE_TUPLESET_MEM
GECODE_TUPLESET_MEM
GECODE_TUPLESET_MEM
GECODE_TUPLESET_MEM
GECODE_TUPLESET_MEM
GECODE_TUPLESET_MEM
GECODE_TUPLESET_MEM
GECODE_TUPLESET_MEM
GECODE_TUPLESET_MEM
GECODE_TUPLESET_MEM
GECODE_TUPLESET_MEM
GECODE_TUPLESET_MEM
GECODE_TUPLESET_MEM
GECODE_TUPLESET_MEM
GECODE_TUPLESET_MEM
GECODE_TUPLESET_MEM
GECODE_TUPLESET_MEM
L = array1d(0..291, [1, 12, 1, 2, 19, 23, 9, 7, 1, 4, 1, 13, 13, 1, 18, 3, 1, 7, 5, 4, 1, 18, 1, 12, 6, 1, 4, 5, 1, 18, 5, 1, 9, 14, 20, 5, 18, 4, 5, 14, 15, 13, 9, 14, 1, 20, 9, 15, 14, 1, 12, 4, 9, 19, 4, 1, 9, 14, 20, 1, 18, 1, 4, 9, 15, 18, 21, 19, 5, 19, 20, 25, 5, 1, 7, 5, 19, 20, 5, 1, 3, 8, 4, 1, 9, 19, 13, 3, 14, 1, 13, 1, 18, 1, 9, 4, 12, 5, 2, 9, 1, 19, 4, 15, 8, 1, 14, 1, 16, 1, 14, 1, 2, 1, 18, 2, 3, 1, 4, 5, 20, 4, 1, 13, 5, 1, 14, 7, 1, 18, 1, 1, 12, 13, 1, 7, 1, 12, 1, 19, 5, 12, 5, 3, 20, 18, 15, 16, 12, 1, 20, 5, 4, 2, 9, 4, 5, 4, 8, 5, 14, 19, 16, 1, 14, 1, 13, 1, 18, 1, 9, 4, 1, 17, 21, 1, 5, 7, 1, 12, 1, 5, 14, 4, 1, 7, 5, 7, 21, 13, 19, 14, 1, 18, 3, 26, 1, 14, 5, 7, 15, 4, 20, 8, 1, 1, 2, 8, 15, 12, 20, 7, 1, 12, 5, 14, 8, 1, 18, 4, 3, 1, 18, 5, 5, 18, 7, 3, 8, 5, 6, 2, 1, 12, 9, 15, 22, 5, 18, 5, 1, 20, 3, 15, 21, 14, 20, 5, 18, 9, 14, 20, 5, 12, 12, 9, 7, 5, 14, 3, 5, 1, 12, 5, 3, 1, 3, 14, 5, 7, 1, 5, 1, 2, 9, 5, 18, 2, 1, 4, 5, 20, 1, 4, 19, 1, 24, 15, 14, 6, 4, 18]);
----------

%%  runtime:       1.153 (1153.318 ms)
%%  solvetime:     0.131 (131.660 ms)
%%  solutions:     1
%%  variables:     24681
%%  propagators:   32344
%%  propagations:  220304
%%  nodes:         146
%%  failures:      6
%%  restarts:      0
%%  peak depth:    138

GECODE_TUPLESET_SPEED
GECODE_TUPLESET_SPEED
GECODE_TUPLESET_SPEED
GECODE_TUPLESET_SPEED
GECODE_TUPLESET_SPEED
GECODE_TUPLESET_SPEED
GECODE_TUPLESET_SPEED
GECODE_TUPLESET_SPEED
GECODE_TUPLESET_SPEED
GECODE_TUPLESET_SPEED
GECODE_TUPLESET_SPEED
GECODE_TUPLESET_SPEED
GECODE_TUPLESET_SPEED
GECODE_TUPLESET_SPEED
GECODE_TUPLESET_SPEED
GECODE_TUPLESET_SPEED
GECODE_TUPLESET_SPEED
GECODE_TUPLESET_SPEED
GECODE_TUPLESET_SPEED
GECODE_TUPLESET_SPEED
GECODE_TUPLESET_SPEED
GECODE_TUPLESET_SPEED
GECODE_TUPLESET_SPEED
GECODE_TUPLESET_SPEED
GECODE_TUPLESET_SPEED
GECODE_TUPLESET_SPEED
GECODE_TUPLESET_SPEED
GECODE_TUPLESET_SPEED
GECODE_TUPLESET_SPEED
GECODE_TUPLESET_SPEED
GECODE_TUPLESET_SPEED
GECODE_TUPLESET_SPEED
GECODE_TUPLESET_SPEED
GECODE_TUPLESET_SPEED
GECODE_TUPLESET_SPEED
GECODE_TUPLESET_SPEED
GECODE_TUPLESET_SPEED
GECODE_TUPLESET_SPEED
GECODE_TUPLESET_SPEED
GECODE_TUPLESET_SPEED
GECODE_TUPLESET_SPEED
GECODE_TUPLESET_SPEED
GECODE_TUPLESET_SPEED
GECODE_TUPLESET_SPEED
GECODE_TUPLESET_SPEED
GECODE_TUPLESET_SPEED
GECODE_TUPLESET_SPEED
GECODE_TUPLESET_SPEED
GECODE_TUPLESET_SPEED
GECODE_TUPLESET_SPEED
GECODE_TUPLESET_SPEED
GECODE_TUPLESET_SPEED
GECODE_TUPLESET_SPEED
GECODE_TUPLESET_SPEED
GECODE_TUPLESET_SPEED
GECODE_TUPLESET_SPEED
GECODE_TUPLESET_SPEED
GECODE_TUPLESET_SPEED
GECODE_TUPLESET_SPEED
GECODE_TUPLESET_SPEED
GECODE_TUPLESET_SPEED
GECODE_TUPLESET_SPEED
GECODE_TUPLESET_SPEED
GECODE_TUPLESET_SPEED
GECODE_TUPLESET_SPEED
GECODE_TUPLESET_SPEED
GECODE_TUPLESET_SPEED
GECODE_TUPLESET_SPEED
GECODE_TUPLESET_SPEED
GECODE_TUPLESET_SPEED
GECODE_TUPLESET_SPEED
GECODE_TUPLESET_SPEED
GECODE_TUPLESET_SPEED
GECODE_TUPLESET_SPEED
GECODE_TUPLESET_SPEED
GECODE_TUPLESET_SPEED
GECODE_TUPLESET_SPEED
GECODE_TUPLESET_SPEED
GECODE_TUPLESET_SPEED
GECODE_TUPLESET_SPEED
GECODE_TUPLESET_SPEED
GECODE_TUPLESET_SPEED
GECODE_TUPLESET_SPEED
GECODE_TUPLESET_SPEED
GECODE_TUPLESET_SPEED
GECODE_TUPLESET_SPEED
GECODE_TUPLESET_SPEED
GECODE_TUPLESET_SPEED
GECODE_TUPLESET_SPEED
GECODE_TUPLESET_SPEED
GECODE_TUPLESET_SPEED
GECODE_TUPLESET_SPEED
GECODE_TUPLESET_SPEED
GECODE_TUPLESET_SPEED
GECODE_TUPLESET_SPEED
GECODE_TUPLESET_SPEED
GECODE_TUPLESET_SPEED
GECODE_TUPLESET_SPEED
GECODE_TUPLESET_SPEED
GECODE_TUPLESET_SPEED
GECODE_TUPLESET_SPEED
GECODE_TUPLESET_SPEED
GECODE_TUPLESET_SPEED
GECODE_TUPLESET_SPEED
GECODE_TUPLESET_SPEED
GECODE_TUPLESET_SPEED
GECODE_TUPLESET_SPEED
GECODE_TUPLESET_SPEED
GECODE_TUPLESET_SPEED
GECODE_TUPLESET_SPEED
GECODE_TUPLESET_SPEED
GECODE_TUPLESET_SPEED
GECODE_TUPLESET_SPEED
GECODE_TUPLESET_SPEED
GECODE_TUPLESET_SPEED
GECODE_TUPLESET_SPEED
GECODE_TUPLESET_SPEED
GECODE_TUPLESET_SPEED
GECODE_TUPLESET_SPEED
GECODE_TUPLESET_SPEED
GECODE_TUPLESET_SPEED
GECODE_TUPLESET_SPEED
GECODE_TUPLESET_SPEED
GECODE_TUPLESET_SPEED
GECODE_TUPLESET_SPEED
GECODE_TUPLESET_SPEED
GECODE_TUPLESET_SPEED
GECODE_TUPLESET_SPEED
L = array1d(0..291, [1, 12, 1, 2, 19, 23, 9, 7, 1, 4, 1, 13, 13, 1, 18, 3, 1, 7, 5, 4, 1, 18, 1, 12, 6, 1, 4, 5, 1, 18, 5, 1, 9, 14, 20, 5, 18, 4, 5, 14, 15, 13, 9, 14, 1, 20, 9, 15, 14, 1, 12, 4, 9, 19, 4, 1, 9, 14, 20, 1, 18, 1, 4, 9, 15, 18, 21, 19, 5, 19, 20, 25, 5, 1, 7, 5, 19, 20, 5, 1, 3, 8, 4, 1, 9, 19, 13, 3, 14, 1, 13, 1, 18, 1, 9, 4, 12, 5, 2, 9, 1, 19, 4, 15, 8, 1, 14, 1, 16, 1, 14, 1, 2, 1, 18, 2, 3, 1, 4, 5, 20, 4, 1, 13, 5, 1, 14, 7, 1, 18, 1, 1, 12, 13, 1, 7, 1, 12, 1, 19, 5, 12, 5, 3, 20, 18, 15, 16, 12, 1, 20, 5, 4, 2, 9, 4, 5, 4, 8, 5, 14, 19, 16, 1, 14, 1, 13, 1, 18, 1, 9, 4, 1, 17, 21, 1, 5, 7, 1, 12, 1, 5, 14, 4, 1, 7, 5, 7, 21, 13, 19, 14, 1, 18, 3, 26, 1, 14, 5, 7, 15, 4, 20, 8, 1, 1, 2, 8, 15, 12, 20, 7, 1, 12, 5, 14, 8, 1, 18, 4, 3, 1, 18, 5, 5, 18, 7, 3, 8, 5, 6, 2, 1, 12, 9, 15, 22, 5, 18, 5, 1, 20, 3, 15, 21, 14, 20, 5, 18, 9, 14, 20, 5, 12, 12, 9, 7, 5, 14, 3, 5, 1, 12, 5, 3, 1, 3, 14, 5, 7, 1, 5, 1, 2, 9, 5, 18, 2, 1, 4, 5, 20, 1, 4, 19, 1, 24, 15, 14, 6, 4, 18]);
----------

%%  runtime:       1.165 (1165.268 ms)
%%  solvetime:     0.152 (152.596 ms)
%%  solutions:     1
%%  variables:     24681
%%  propagators:   32344
%%  propagations:  221705
%%  nodes:         146
%%  failures:      6
%%  restarts:      0
%%  peak depth:    138

COMPACT_TABLE
COMPACT_TABLE
COMPACT_TABLE
COMPACT_TABLE
COMPACT_TABLE
COMPACT_TABLE
COMPACT_TABLE
COMPACT_TABLE
COMPACT_TABLE
COMPACT_TABLE
COMPACT_TABLE
COMPACT_TABLE
COMPACT_TABLE
COMPACT_TABLE
COMPACT_TABLE
COMPACT_TABLE
COMPACT_TABLE
COMPACT_TABLE
COMPACT_TABLE
COMPACT_TABLE
COMPACT_TABLE
COMPACT_TABLE
COMPACT_TABLE
COMPACT_TABLE
COMPACT_TABLE
COMPACT_TABLE
COMPACT_TABLE
COMPACT_TABLE
COMPACT_TABLE
COMPACT_TABLE
COMPACT_TABLE
COMPACT_TABLE
COMPACT_TABLE
COMPACT_TABLE
COMPACT_TABLE
COMPACT_TABLE
COMPACT_TABLE
COMPACT_TABLE
COMPACT_TABLE
COMPACT_TABLE
COMPACT_TABLE
COMPACT_TABLE
COMPACT_TABLE
COMPACT_TABLE
COMPACT_TABLE
COMPACT_TABLE
COMPACT_TABLE
COMPACT_TABLE
COMPACT_TABLE
COMPACT_TABLE
COMPACT_TABLE
COMPACT_TABLE
COMPACT_TABLE
COMPACT_TABLE
COMPACT_TABLE
COMPACT_TABLE
COMPACT_TABLE
COMPACT_TABLE
COMPACT_TABLE
COMPACT_TABLE
COMPACT_TABLE
COMPACT_TABLE
COMPACT_TABLE
COMPACT_TABLE
COMPACT_TABLE
COMPACT_TABLE
COMPACT_TABLE
COMPACT_TABLE
COMPACT_TABLE
COMPACT_TABLE
COMPACT_TABLE
COMPACT_TABLE
COMPACT_TABLE
COMPACT_TABLE
COMPACT_TABLE
COMPACT_TABLE
COMPACT_TABLE
COMPACT_TABLE
COMPACT_TABLE
COMPACT_TABLE
COMPACT_TABLE
COMPACT_TABLE
COMPACT_TABLE
COMPACT_TABLE
COMPACT_TABLE
COMPACT_TABLE
COMPACT_TABLE
COMPACT_TABLE
COMPACT_TABLE
COMPACT_TABLE
COMPACT_TABLE
COMPACT_TABLE
COMPACT_TABLE
COMPACT_TABLE
COMPACT_TABLE
COMPACT_TABLE
COMPACT_TABLE
COMPACT_TABLE
COMPACT_TABLE
COMPACT_TABLE
COMPACT_TABLE
COMPACT_TABLE
COMPACT_TABLE
COMPACT_TABLE
COMPACT_TABLE
COMPACT_TABLE
COMPACT_TABLE
COMPACT_TABLE
COMPACT_TABLE
COMPACT_TABLE
COMPACT_TABLE
COMPACT_TABLE
COMPACT_TABLE
COMPACT_TABLE
COMPACT_TABLE
COMPACT_TABLE
COMPACT_TABLE
COMPACT_TABLE
COMPACT_TABLE
COMPACT_TABLE
COMPACT_TABLE
COMPACT_TABLE
COMPACT_TABLE
COMPACT_TABLE
COMPACT_TABLE
COMPACT_TABLE
COMPACT_TABLE
COMPACT_TABLE
L = array1d(0..291, [1, 12, 1, 2, 19, 23, 9, 7, 1, 4, 1, 13, 13, 1, 18, 3, 1, 7, 5, 4, 1, 18, 1, 12, 6, 1, 4, 5, 1, 18, 5, 1, 9, 14, 20, 5, 18, 4, 5, 14, 15, 13, 9, 14, 1, 20, 9, 15, 14, 1, 12, 4, 9, 19, 4, 1, 9, 14, 20, 1, 18, 1, 4, 9, 15, 18, 21, 19, 5, 19, 20, 25, 5, 1, 7, 5, 19, 20, 5, 1, 3, 8, 4, 1, 9, 19, 13, 3, 14, 1, 13, 1, 18, 1, 9, 4, 12, 5, 2, 9, 1, 19, 4, 15, 8, 1, 14, 1, 16, 1, 14, 1, 2, 1, 18, 2, 3, 1, 4, 5, 20, 4, 1, 13, 5, 1, 14, 7, 1, 18, 1, 1, 12, 13, 1, 7, 1, 12, 1, 19, 5, 12, 5, 3, 20, 18, 15, 16, 12, 1, 20, 5, 4, 2, 9, 4, 5, 4, 8, 5, 14, 19, 16, 1, 14, 1, 13, 1, 18, 1, 9, 4, 1, 17, 21, 1, 5, 7, 1, 12, 1, 5, 14, 4, 1, 7, 5, 7, 21, 13, 19, 14, 1, 18, 3, 26, 1, 14, 5, 7, 15, 4, 20, 8, 1, 1, 2, 8, 15, 12, 20, 7, 1, 12, 5, 14, 8, 1, 18, 4, 3, 1, 18, 5, 5, 18, 7, 3, 8, 5, 6, 2, 1, 12, 9, 15, 22, 5, 18, 5, 1, 20, 3, 15, 21, 14, 20, 5, 18, 9, 14, 20, 5, 12, 12, 9, 7, 5, 14, 3, 5, 1, 12, 5, 3, 1, 3, 14, 5, 7, 1, 5, 1, 2, 9, 5, 18, 2, 1, 4, 5, 20, 1, 4, 19, 1, 24, 15, 14, 6, 4, 18]);
----------

%%  runtime:       1.427 (1427.729 ms)
%%  solvetime:     0.156 (156.038 ms)
%%  solutions:     1
%%  variables:     24681
%%  propagators:   32344
%%  propagations:  214615
%%  nodes:         146
%%  failures:      6
%%  restarts:      0
%%  peak depth:    138

